nNurses = 75;
nHours = 28;
minHours = 3;
maxHours = 12;
maxConsec = 10;
maxPresence = 19;
demand = [16, 12, 14, 14, 16, 11, 16, 11, 16, 14, 16, 21, 19, 19, 18, 16, 19, 21, 22, 26, 30, 25, 25, 29, 31, 26, 23, 20];
